p cnf 9 35
-4 1 -6 0
2 3 8 0
-1 -3 -4 0
6 4 3 0
8 -3 -5 0
3 4 2 0
4 -1 -2 0
-7 -6 4 0
5 -3 7 0
-6 5 4 0
-3 9 2 0
-7 -8 9 0
5 9 4 0
1 5 3 0
8 2 1 0
3 7 -8 0
-5 -8 -3 0
-5 6 7 0
-6 -9 8 0
-3 -7 -8 0
4 7 2 0
-5 -1 -2 0
-7 9 -5 0
9 -2 7 0
3 4 2 0
2 3 -1 0
7 5 -8 0
2 -1 3 0
6 -2 9 0
1 -4 2 0
-1 4 8 0
9 -6 -5 0
-9 2 1 0
-5 8 -3 0
3 6 2 0
